
Gurobi 12.0.2 (mac64[arm]) logging started Mon Jun 16 00:35:28 2025

Set parameter LogFile to value "/Users/yurunfeng/Documents/GitHub/LRGTS-store-location/result/gurobi/snyder/49nodes/49-0.9-5.log"
Gurobi Optimizer version 12.0.2 build v12.0.2rc0 (mac64[arm] - Darwin 24.5.0 24F74)

CPU model: Apple M4
Thread count: 10 physical cores, 10 logical processors, using up to 10 threads

Non-default parameters:
TimeLimit  1200

Optimize a model with 5096 rows, 12299 columns and 87416 nonzeros
Model fingerprint: 0x9f58c7c7
Variable types: 0 continuous, 12299 integer (12299 binary)
Coefficient statistics:
  Matrix range     [1e+00, 1e+00]
  Objective range  [2e-02, 3e+06]
  Bounds range     [1e+00, 1e+00]
  RHS range        [1e+00, 1e+00]
Found heuristic solution: objective 2.470516e+07
Presolve removed 147 rows and 2450 columns
Presolve time: 0.11s
Presolved: 4949 rows, 9849 columns, 82075 nonzeros
Variable types: 0 continuous, 9849 integer (9849 binary)

Root relaxation: objective 1.075959e+06, 3018 iterations, 0.01 seconds (0.04 work units)

    Nodes    |    Current Node    |     Objective Bounds      |     Work
 Expl Unexpl |  Obj  Depth IntInf | Incumbent    BestBd   Gap | It/Node Time

*    0     0               0    1075958.7763 1075958.78  0.00%     -    0s

Explored 1 nodes (3018 simplex iterations) in 0.14 seconds (0.39 work units)
Thread count was 10 (of 10 available processors)

Solution count 2: 1.07596e+06 2.47052e+07 

Optimal solution found (tolerance 1.00e-04)
Best objective 1.075958776291e+06, best bound 1.075958776291e+06, gap 0.0000%
